
Gurobi 6.0.4 (win64) logging started 06/18/15 16:07:39

Read LP format model from file C:\MT\repository\VRPTWMS\instances\mip\freight\N6-C_DV10-C_SV50_F14_2_No_1.lp
Reading time = 0.01 seconds
(null): 217 rows, 141 columns, 849 nonzeros
Optimize a model with 217 rows, 141 columns and 849 nonzeros
Model has 294 quadratic constraints
Coefficient statistics:
  Matrix range    [1e+00, 1e+06]
  Objective range [1e+04, 1e+07]
  Bounds range    [1e+00, 1e+06]
  RHS range       [1e+00, 1e+06]
Presolve removed 32 rows and 16 columns
Presolve time: 0.02s
Presolved: 833 rows, 467 columns, 3657 nonzeros
Variable types: 306 continuous, 161 integer (121 binary)
Found heuristic solution: objective 6.199400e+07

Root relaxation: objective 6.353668e+06, 126 iterations, 0.00 seconds

    Nodes    |    Current Node    |     Objective Bounds      |     Work
 Expl Unexpl |  Obj  Depth IntInf | Incumbent    BestBd   Gap | It/Node Time

     0     0 6353668.44    0   59 6.1994e+07 6353668.44  89.8%     -    0s
H    0     0                    5.173790e+07 6353668.44  87.7%     -    0s
H    0     0                    3.168460e+07 6353668.44  79.9%     -    0s
     0     0 1.1572e+07    0   34 3.1685e+07 1.1572e+07  63.5%     -    0s
     0     0 1.1618e+07    0   50 3.1685e+07 1.1618e+07  63.3%     -    0s
     0     0 1.1632e+07    0   61 3.1685e+07 1.1632e+07  63.3%     -    0s
     0     0 1.1653e+07    0   54 3.1685e+07 1.1653e+07  63.2%     -    0s
     0     0 1.1669e+07    0   51 3.1685e+07 1.1669e+07  63.2%     -    0s
     0     0 1.1669e+07    0   51 3.1685e+07 1.1669e+07  63.2%     -    0s
     0     0 1.1669e+07    0   52 3.1685e+07 1.1669e+07  63.2%     -    0s
     0     0 1.1669e+07    0   50 3.1685e+07 1.1669e+07  63.2%     -    0s
     0     0 1.1669e+07    0   50 3.1685e+07 1.1669e+07  63.2%     -    0s
     0     0 1.1669e+07    0   50 3.1685e+07 1.1669e+07  63.2%     -    0s
     0     0 1.1669e+07    0   50 3.1685e+07 1.1669e+07  63.2%     -    0s
     0     2 1.1669e+07    0   47 3.1685e+07 1.1669e+07  63.2%     -    0s

Cutting planes:
  Learned: 1
  Gomory: 1
  Cover: 67
  Implied bound: 167
  Clique: 29
  MIR: 25
  Flow cover: 2
  GUB cover: 8

Explored 1916 nodes (55523 simplex iterations) in 1.20 seconds
Thread count was 2 (of 4 available processors)

Optimal solution found (tolerance 1.00e-04)
Best objective 3.168460000000e+07, best bound 3.168460000000e+07, gap 0.0%
k_c1	70000.0
k_c2	100000.0
k_c3	50000.0
k_c4	100000.0
k_c5	100000.0
k_c6	70000.0
k_dN	0.0
kDash_c1	50000.0
kDash_c2	10000.0
kDash_c3	10000.0
kDash_c4	80000.0
kDash_c5	70000.0
kDash_c6	0.0
o_1	0.0
o_2	-0.0
o_3	-0.0
o_4	-0.0
o_5	0.0
o_6	-0.0
p_1	0.0
p_2	-0.0
p_3	-0.0
p_4	-0.0
p_5	0.0
p_6	-0.0
phi_c1	25904.0
phi_c2	67874.0
phi_c3	3412.0
phi_c4	127664.0
phi_c5	56832.0
phi_c6	15400.0
phi_d0	140000.0
phi_dN	-0.0
pi_c1	0.0
pi_c2	0.0
pi_c3	99999.0
pi_c4	0.0
pi_c5	0.0
pi_c6	0.0
pi_dN	0.0
tauD_c1	485950.0
tauD_c2	600000.0
tauD_c3	650000.0
tauD_c4	334100.0
tauD_c5	310375.0
tauD_c6	450000.0
tauD_d0	-0.0
tauD_dN	1000000.0
tauS_c1	0.0
tauS_c2	847124.0
tauS_c3	835949.0
tauS_c4	818475.0
tauS_c5	0.0
tauS_c6	814499.0
tauS_d0	-0.0
tauS_dN	0.0
x_c1_c3	1.0
x_c2_dN	1.0
x_c3_dN	1.0
x_c4_c6	1.0
x_c5_c1	1.0
x_c6_dN	1.0
x_d0_c2	1.0
x_d0_c4	1.0
x_d0_c5	1.0
